NAME : random39.510.tour
COMMENT : Length = 510
COMMENT : Found by LKH [Keld Helsgaun] Tue Sep  3 16:56:14 2024
TYPE : TOUR
DIMENSION : 39
TOUR_SECTION
1
13
27
17
30
11
20
26
23
39
18
16
3
4
21
37
36
25
29
24
15
14
9
28
12
2
32
34
33
7
38
35
8
6
22
19
5
10
31
-1
EOF
